c Reduced graph for r28 generated by Cyril Grelier
p edge 280 3632
e 1 2
e 1 3
e 1 4
e 1 5
e 1 6
e 1 7
e 1 8
e 1 9
e 1 10
e 1 11
e 1 14
e 1 18
e 1 19
e 1 20
e 1 21
e 1 28
e 1 29
e 1 32
e 1 35
e 1 36
e 1 41
e 1 47
e 1 60
e 1 61
e 1 62
e 1 86
e 1 87
e 1 88
e 1 89
e 1 90
e 1 110
e 1 132
e 1 159
e 1 160
e 2 3
e 2 4
e 2 5
e 2 6
e 2 7
e 2 8
e 2 12
e 2 13
e 2 14
e 2 18
e 2 19
e 2 20
e 2 21
e 2 30
e 2 31
e 2 32
e 2 35
e 2 36
e 2 42
e 2 43
e 2 44
e 2 47
e 2 62
e 2 63
e 2 64
e 2 91
e 2 92
e 2 93
e 2 94
e 2 110
e 2 133
e 2 164
e 2 165
e 3 4
e 3 5
e 3 6
e 3 7
e 3 8
e 3 14
e 3 15
e 3 16
e 3 17
e 3 18
e 3 19
e 3 20
e 3 21
e 3 32
e 3 33
e 3 34
e 3 35
e 3 36
e 3 45
e 3 46
e 3 47
e 3 62
e 3 68
e 3 69
e 3 98
e 3 99
e 3 100
e 3 101
e 3 102
e 3 110
e 3 171
e 3 172
e 4 5
e 4 6
e 4 7
e 4 8
e 4 14
e 4 18
e 4 19
e 4 20
e 4 21
e 4 22
e 4 23
e 4 24
e 4 32
e 4 35
e 4 36
e 4 37
e 4 38
e 4 47
e 4 52
e 4 53
e 4 62
e 4 83
e 4 84
e 4 110
e 4 120
e 4 121
e 4 122
e 4 123
e 4 157
e 4 188
e 5 6
e 5 7
e 5 8
e 5 14
e 5 18
e 5 19
e 5 20
e 5 21
e 5 25
e 5 26
e 5 27
e 5 32
e 5 35
e 5 36
e 5 39
e 5 40
e 5 47
e 5 57
e 5 58
e 5 59
e 5 62
e 5 110
e 5 126
e 5 127
e 5 128
e 5 129
e 5 130
e 5 131
e 5 194
e 6 7
e 6 8
e 6 14
e 6 18
e 6 19
e 6 20
e 6 21
e 6 32
e 6 35
e 6 36
e 6 47
e 6 48
e 6 49
e 6 50
e 6 62
e 6 75
e 6 76
e 6 110
e 6 111
e 6 112
e 6 149
e 6 150
e 6 178
e 6 179
e 6 180
e 6 248
e 6 249
e 7 8
e 7 14
e 7 18
e 7 19
e 7 20
e 7 21
e 7 32
e 7 35
e 7 36
e 7 47
e 7 51
e 7 62
e 7 81
e 7 82
e 7 110
e 7 117
e 7 118
e 7 119
e 7 156
e 7 184
e 7 185
e 7 186
e 7 187
e 7 229
e 7 255
e 8 14
e 8 18
e 8 19
e 8 20
e 8 21
e 8 32
e 8 35
e 8 36
e 8 47
e 8 54
e 8 55
e 8 56
e 8 62
e 8 85
e 8 110
e 8 124
e 8 125
e 8 158
e 8 189
e 8 190
e 8 191
e 8 192
e 8 193
e 8 230
e 9 10
e 9 11
e 9 12
e 9 15
e 9 22
e 9 25
e 9 28
e 9 29
e 9 41
e 9 48
e 9 54
e 9 60
e 9 61
e 9 65
e 9 70
e 9 73
e 9 77
e 9 79
e 9 86
e 9 87
e 9 88
e 9 89
e 9 90
e 9 108
e 9 132
e 9 142
e 9 159
e 9 160
e 9 161
e 9 213
e 10 11
e 10 16
e 10 23
e 10 26
e 10 28
e 10 29
e 10 41
e 10 49
e 10 55
e 10 60
e 10 61
e 10 66
e 10 71
e 10 74
e 10 78
e 10 86
e 10 87
e 10 88
e 10 89
e 10 90
e 10 96
e 10 104
e 10 109
e 10 132
e 10 143
e 10 159
e 10 160
e 10 162
e 10 214
e 11 13
e 11 17
e 11 24
e 11 27
e 11 28
e 11 29
e 11 41
e 11 50
e 11 51
e 11 56
e 11 60
e 11 61
e 11 67
e 11 72
e 11 80
e 11 86
e 11 87
e 11 88
e 11 89
e 11 90
e 11 97
e 11 105
e 11 114
e 11 132
e 11 159
e 11 160
e 11 163
e 11 215
e 12 13
e 12 15
e 12 22
e 12 25
e 12 30
e 12 31
e 12 42
e 12 43
e 12 44
e 12 48
e 12 54
e 12 63
e 12 64
e 12 65
e 12 70
e 12 73
e 12 77
e 12 79
e 12 91
e 12 92
e 12 93
e 12 94
e 12 108
e 12 133
e 12 142
e 12 161
e 12 164
e 12 165
e 12 213
e 13 17
e 13 24
e 13 27
e 13 30
e 13 31
e 13 42
e 13 43
e 13 44
e 13 50
e 13 51
e 13 56
e 13 63
e 13 64
e 13 67
e 13 72
e 13 80
e 13 91
e 13 92
e 13 93
e 13 94
e 13 97
e 13 105
e 13 114
e 13 133
e 13 163
e 13 164
e 13 165
e 13 215
e 14 18
e 14 19
e 14 20
e 14 21
e 14 32
e 14 35
e 14 36
e 14 47
e 14 62
e 14 65
e 14 66
e 14 67
e 14 95
e 14 110
e 14 134
e 14 135
e 14 136
e 14 166
e 14 167
e 14 195
e 14 196
e 14 197
e 14 198
e 15 16
e 15 17
e 15 22
e 15 25
e 15 33
e 15 34
e 15 45
e 15 46
e 15 48
e 15 54
e 15 65
e 15 68
e 15 69
e 15 70
e 15 73
e 15 77
e 15 79
e 15 98
e 15 99
e 15 100
e 15 101
e 15 102
e 15 108
e 15 142
e 15 161
e 15 171
e 15 172
e 15 213
e 16 17
e 16 23
e 16 26
e 16 33
e 16 34
e 16 45
e 16 46
e 16 49
e 16 55
e 16 66
e 16 68
e 16 69
e 16 71
e 16 74
e 16 78
e 16 96
e 16 98
e 16 99
e 16 100
e 16 101
e 16 102
e 16 104
e 16 109
e 16 143
e 16 162
e 16 171
e 16 172
e 16 214
e 17 24
e 17 27
e 17 33
e 17 34
e 17 45
e 17 46
e 17 50
e 17 51
e 17 56
e 17 67
e 17 68
e 17 69
e 17 72
e 17 80
e 17 97
e 17 98
e 17 99
e 17 100
e 17 101
e 17 102
e 17 105
e 17 114
e 17 163
e 17 171
e 17 172
e 17 215
e 18 19
e 18 20
e 18 21
e 18 32
e 18 35
e 18 36
e 18 47
e 18 62
e 18 70
e 18 71
e 18 72
e 18 103
e 18 110
e 18 139
e 18 140
e 18 173
e 18 174
e 18 199
e 18 200
e 18 201
e 18 202
e 18 236
e 19 20
e 19 21
e 19 32
e 19 35
e 19 36
e 19 47
e 19 62
e 19 73
e 19 74
e 19 106
e 19 107
e 19 110
e 19 144
e 19 145
e 19 146
e 19 206
e 19 207
e 19 208
e 19 209
e 19 210
e 19 242
e 20 21
e 20 32
e 20 35
e 20 36
e 20 47
e 20 62
e 20 77
e 20 78
e 20 110
e 20 113
e 20 151
e 20 152
e 20 181
e 20 216
e 20 217
e 20 218
e 20 219
e 20 220
e 20 250
e 20 265
e 21 32
e 21 35
e 21 36
e 21 47
e 21 62
e 21 79
e 21 80
e 21 110
e 21 115
e 21 116
e 21 154
e 21 155
e 21 223
e 21 224
e 21 225
e 21 226
e 21 227
e 21 228
e 22 23
e 22 24
e 22 25
e 22 37
e 22 38
e 22 48
e 22 52
e 22 53
e 22 54
e 22 65
e 22 70
e 22 73
e 22 77
e 22 79
e 22 83
e 22 84
e 22 108
e 22 120
e 22 121
e 22 122
e 22 123
e 22 142
e 22 157
e 22 161
e 22 188
e 22 213
e 23 24
e 23 26
e 23 37
e 23 38
e 23 49
e 23 52
e 23 53
e 23 55
e 23 66
e 23 71
e 23 74
e 23 78
e 23 83
e 23 84
e 23 96
e 23 104
e 23 109
e 23 120
e 23 121
e 23 122
e 23 123
e 23 143
e 23 157
e 23 162
e 23 188
e 23 214
e 24 27
e 24 37
e 24 38
e 24 50
e 24 51
e 24 52
e 24 53
e 24 56
e 24 67
e 24 72
e 24 80
e 24 83
e 24 84
e 24 97
e 24 105
e 24 114
e 24 120
e 24 121
e 24 122
e 24 123
e 24 157
e 24 163
e 24 188
e 24 215
e 25 26
e 25 27
e 25 39
e 25 40
e 25 48
e 25 54
e 25 57
e 25 58
e 25 59
e 25 65
e 25 70
e 25 73
e 25 77
e 25 79
e 25 108
e 25 126
e 25 127
e 25 128
e 25 129
e 25 130
e 25 131
e 25 142
e 25 161
e 25 194
e 25 213
e 26 27
e 26 39
e 26 40
e 26 49
e 26 55
e 26 57
e 26 58
e 26 59
e 26 66
e 26 71
e 26 74
e 26 78
e 26 96
e 26 104
e 26 109
e 26 126
e 26 127
e 26 128
e 26 129
e 26 130
e 26 131
e 26 143
e 26 162
e 26 194
e 26 214
e 27 39
e 27 40
e 27 50
e 27 51
e 27 56
e 27 57
e 27 58
e 27 59
e 27 67
e 27 72
e 27 80
e 27 97
e 27 105
e 27 114
e 27 126
e 27 127
e 27 128
e 27 129
e 27 130
e 27 131
e 27 163
e 27 194
e 27 215
e 28 29
e 28 30
e 28 33
e 28 37
e 28 39
e 28 41
e 28 60
e 28 61
e 28 75
e 28 81
e 28 85
e 28 86
e 28 87
e 28 88
e 28 89
e 28 90
e 28 95
e 28 103
e 28 106
e 28 115
e 28 132
e 28 137
e 28 147
e 28 159
e 28 160
e 28 247
e 29 31
e 29 34
e 29 38
e 29 40
e 29 41
e 29 60
e 29 61
e 29 76
e 29 82
e 29 86
e 29 87
e 29 88
e 29 89
e 29 90
e 29 107
e 29 113
e 29 116
e 29 132
e 29 138
e 29 141
e 29 148
e 29 153
e 29 159
e 29 160
e 29 176
e 30 31
e 30 33
e 30 37
e 30 39
e 30 42
e 30 43
e 30 44
e 30 63
e 30 64
e 30 75
e 30 81
e 30 85
e 30 91
e 30 92
e 30 93
e 30 94
e 30 95
e 30 103
e 30 106
e 30 115
e 30 133
e 30 137
e 30 147
e 30 164
e 30 165
e 30 247
e 31 34
e 31 38
e 31 40
e 31 42
e 31 43
e 31 44
e 31 63
e 31 64
e 31 76
e 31 82
e 31 91
e 31 92
e 31 93
e 31 94
e 31 107
e 31 113
e 31 116
e 31 133
e 31 138
e 31 141
e 31 148
e 31 153
e 31 164
e 31 165
e 31 176
e 32 35
e 32 36
e 32 47
e 32 62
e 32 96
e 32 97
e 32 110
e 32 137
e 32 138
e 32 168
e 32 169
e 32 170
e 32 233
e 32 234
e 32 235
e 32 257
e 32 269
e 33 34
e 33 37
e 33 39
e 33 45
e 33 46
e 33 68
e 33 69
e 33 75
e 33 81
e 33 85
e 33 95
e 33 98
e 33 99
e 33 100
e 33 101
e 33 102
e 33 103
e 33 106
e 33 115
e 33 137
e 33 147
e 33 171
e 33 172
e 33 247
e 34 38
e 34 40
e 34 45
e 34 46
e 34 68
e 34 69
e 34 76
e 34 82
e 34 98
e 34 99
e 34 100
e 34 101
e 34 102
e 34 107
e 34 113
e 34 116
e 34 138
e 34 141
e 34 148
e 34 153
e 34 171
e 34 172
e 34 176
e 35 36
e 35 47
e 35 62
e 35 104
e 35 105
e 35 110
e 35 141
e 35 175
e 35 203
e 35 204
e 35 237
e 35 238
e 35 239
e 35 240
e 35 270
e 35 271
e 36 47
e 36 62
e 36 110
e 36 114
e 36 153
e 36 182
e 36 183
e 36 221
e 36 222
e 36 251
e 36 252
e 36 253
e 36 254
e 36 275
e 36 276
e 37 38
e 37 39
e 37 52
e 37 53
e 37 75
e 37 81
e 37 83
e 37 84
e 37 85
e 37 95
e 37 103
e 37 106
e 37 115
e 37 120
e 37 121
e 37 122
e 37 123
e 37 137
e 37 147
e 37 157
e 37 188
e 37 247
e 38 40
e 38 52
e 38 53
e 38 76
e 38 82
e 38 83
e 38 84
e 38 107
e 38 113
e 38 116
e 38 120
e 38 121
e 38 122
e 38 123
e 38 138
e 38 141
e 38 148
e 38 153
e 38 157
e 38 176
e 38 188
e 39 40
e 39 57
e 39 58
e 39 59
e 39 75
e 39 81
e 39 85
e 39 95
e 39 103
e 39 106
e 39 115
e 39 126
e 39 127
e 39 128
e 39 129
e 39 130
e 39 131
e 39 137
e 39 147
e 39 194
e 39 247
e 40 57
e 40 58
e 40 59
e 40 76
e 40 82
e 40 107
e 40 113
e 40 116
e 40 126
e 40 127
e 40 128
e 40 129
e 40 130
e 40 131
e 40 138
e 40 141
e 40 148
e 40 153
e 40 176
e 40 194
e 41 42
e 41 45
e 41 52
e 41 57
e 41 60
e 41 61
e 41 86
e 41 87
e 41 88
e 41 89
e 41 90
e 41 111
e 41 117
e 41 124
e 41 132
e 41 134
e 41 139
e 41 144
e 41 159
e 41 160
e 41 168
e 41 175
e 41 231
e 42 43
e 42 44
e 42 45
e 42 52
e 42 57
e 42 63
e 42 64
e 42 91
e 42 92
e 42 93
e 42 94
e 42 111
e 42 117
e 42 124
e 42 133
e 42 134
e 42 139
e 42 144
e 42 164
e 42 165
e 42 168
e 42 175
e 42 231
e 43 44
e 43 58
e 43 63
e 43 64
e 43 91
e 43 92
e 43 93
e 43 94
e 43 118
e 43 125
e 43 133
e 43 135
e 43 140
e 43 145
e 43 151
e 43 154
e 43 164
e 43 165
e 43 169
e 43 177
e 43 182
e 43 205
e 43 263
e 44 46
e 44 53
e 44 59
e 44 63
e 44 64
e 44 91
e 44 92
e 44 93
e 44 94
e 44 112
e 44 119
e 44 133
e 44 136
e 44 146
e 44 152
e 44 155
e 44 164
e 44 165
e 44 170
e 44 183
e 44 232
e 44 264
e 45 46
e 45 52
e 45 57
e 45 68
e 45 69
e 45 98
e 45 99
e 45 100
e 45 101
e 45 102
e 45 111
e 45 117
e 45 124
e 45 134
e 45 139
e 45 144
e 45 168
e 45 171
e 45 172
e 45 175
e 45 231
e 46 53
e 46 59
e 46 68
e 46 69
e 46 98
e 46 99
e 46 100
e 46 101
e 46 102
e 46 112
e 46 119
e 46 136
e 46 146
e 46 152
e 46 155
e 46 170
e 46 171
e 46 172
e 46 183
e 46 232
e 46 264
e 47 62
e 47 110
e 47 142
e 47 143
e 47 176
e 47 205
e 47 241
e 47 258
e 47 259
e 47 260
e 47 261
e 47 272
e 47 277
e 48 49
e 48 50
e 48 54
e 48 65
e 48 70
e 48 73
e 48 75
e 48 76
e 48 77
e 48 79
e 48 108
e 48 111
e 48 112
e 48 142
e 48 149
e 48 150
e 48 161
e 48 178
e 48 179
e 48 180
e 48 213
e 48 248
e 48 249
e 49 50
e 49 55
e 49 66
e 49 71
e 49 74
e 49 75
e 49 76
e 49 78
e 49 96
e 49 104
e 49 109
e 49 111
e 49 112
e 49 143
e 49 149
e 49 150
e 49 162
e 49 178
e 49 179
e 49 180
e 49 214
e 49 248
e 49 249
e 50 51
e 50 56
e 50 67
e 50 72
e 50 75
e 50 76
e 50 80
e 50 97
e 50 105
e 50 111
e 50 112
e 50 114
e 50 149
e 50 150
e 50 163
e 50 178
e 50 179
e 50 180
e 50 215
e 50 248
e 50 249
e 51 56
e 51 67
e 51 72
e 51 80
e 51 81
e 51 82
e 51 97
e 51 105
e 51 114
e 51 117
e 51 118
e 51 119
e 51 156
e 51 163
e 51 184
e 51 185
e 51 186
e 51 187
e 51 215
e 51 229
e 51 255
e 52 53
e 52 57
e 52 83
e 52 84
e 52 111
e 52 117
e 52 120
e 52 121
e 52 122
e 52 123
e 52 124
e 52 134
e 52 139
e 52 144
e 52 157
e 52 168
e 52 175
e 52 188
e 52 231
e 53 59
e 53 83
e 53 84
e 53 112
e 53 119
e 53 120
e 53 121
e 53 122
e 53 123
e 53 136
e 53 146
e 53 152
e 53 155
e 53 157
e 53 170
e 53 183
e 53 188
e 53 232
e 53 264
e 54 55
e 54 56
e 54 65
e 54 70
e 54 73
e 54 77
e 54 79
e 54 85
e 54 108
e 54 124
e 54 125
e 54 142
e 54 158
e 54 161
e 54 189
e 54 190
e 54 191
e 54 192
e 54 193
e 54 213
e 54 230
e 55 56
e 55 66
e 55 71
e 55 74
e 55 78
e 55 85
e 55 96
e 55 104
e 55 109
e 55 124
e 55 125
e 55 143
e 55 158
e 55 162
e 55 189
e 55 190
e 55 191
e 55 192
e 55 193
e 55 214
e 55 230
e 56 67
e 56 72
e 56 80
e 56 85
e 56 97
e 56 105
e 56 114
e 56 124
e 56 125
e 56 158
e 56 163
e 56 189
e 56 190
e 56 191
e 56 192
e 56 193
e 56 215
e 56 230
e 57 58
e 57 59
e 57 111
e 57 117
e 57 124
e 57 126
e 57 127
e 57 128
e 57 129
e 57 130
e 57 131
e 57 134
e 57 139
e 57 144
e 57 168
e 57 175
e 57 194
e 57 231
e 58 59
e 58 118
e 58 125
e 58 126
e 58 127
e 58 128
e 58 129
e 58 130
e 58 131
e 58 135
e 58 140
e 58 145
e 58 151
e 58 154
e 58 169
e 58 177
e 58 182
e 58 194
e 58 205
e 58 263
e 59 112
e 59 119
e 59 126
e 59 127
e 59 128
e 59 129
e 59 130
e 59 131
e 59 136
e 59 146
e 59 152
e 59 155
e 59 170
e 59 183
e 59 194
e 59 232
e 59 264
e 60 61
e 60 63
e 60 68
e 60 83
e 60 86
e 60 87
e 60 88
e 60 89
e 60 90
e 60 132
e 60 149
e 60 156
e 60 158
e 60 159
e 60 160
e 60 166
e 60 173
e 60 203
e 60 211
e 60 221
e 60 241
e 61 64
e 61 69
e 61 84
e 61 86
e 61 87
e 61 88
e 61 89
e 61 90
e 61 132
e 61 150
e 61 159
e 61 160
e 61 167
e 61 174
e 61 181
e 61 204
e 61 212
e 61 222
e 61 256
e 61 274
e 62 110
e 62 161
e 62 162
e 62 163
e 62 231
e 62 232
e 62 256
e 62 266
e 62 267
e 62 268
e 62 280
e 63 64
e 63 68
e 63 83
e 63 91
e 63 92
e 63 93
e 63 94
e 63 133
e 63 149
e 63 156
e 63 158
e 63 164
e 63 165
e 63 166
e 63 173
e 63 203
e 63 211
e 63 221
e 63 241
e 64 69
e 64 84
e 64 91
e 64 92
e 64 93
e 64 94
e 64 133
e 64 150
e 64 164
e 64 165
e 64 167
e 64 174
e 64 181
e 64 204
e 64 212
e 64 222
e 64 256
e 64 274
e 65 66
e 65 67
e 65 70
e 65 73
e 65 77
e 65 79
e 65 95
e 65 108
e 65 134
e 65 135
e 65 136
e 65 142
e 65 161
e 65 166
e 65 167
e 65 195
e 65 196
e 65 197
e 65 198
e 65 213
e 66 67
e 66 71
e 66 74
e 66 78
e 66 95
e 66 96
e 66 104
e 66 109
e 66 134
e 66 135
e 66 136
e 66 143
e 66 162
e 66 166
e 66 167
e 66 195
e 66 196
e 66 197
e 66 198
e 66 214
e 67 72
e 67 80
e 67 95
e 67 97
e 67 105
e 67 114
e 67 134
e 67 135
e 67 136
e 67 163
e 67 166
e 67 167
e 67 195
e 67 196
e 67 197
e 67 198
e 67 215
e 68 69
e 68 83
e 68 98
e 68 99
e 68 100
e 68 101
e 68 102
e 68 149
e 68 156
e 68 158
e 68 166
e 68 171
e 68 172
e 68 173
e 68 203
e 68 211
e 68 221
e 68 241
e 69 84
e 69 98
e 69 99
e 69 100
e 69 101
e 69 102
e 69 150
e 69 167
e 69 171
e 69 172
e 69 174
e 69 181
e 69 204
e 69 212
e 69 222
e 69 256
e 69 274
e 70 71
e 70 72
e 70 73
e 70 77
e 70 79
e 70 103
e 70 108
e 70 139
e 70 140
e 70 142
e 70 161
e 70 173
e 70 174
e 70 199
e 70 200
e 70 201
e 70 202
e 70 213
e 70 236
e 71 72
e 71 74
e 71 78
e 71 96
e 71 103
e 71 104
e 71 109
e 71 139
e 71 140
e 71 143
e 71 162
e 71 173
e 71 174
e 71 199
e 71 200
e 71 201
e 71 202
e 71 214
e 71 236
e 72 80
e 72 97
e 72 103
e 72 105
e 72 114
e 72 139
e 72 140
e 72 163
e 72 173
e 72 174
e 72 199
e 72 200
e 72 201
e 72 202
e 72 215
e 72 236
e 73 74
e 73 77
e 73 79
e 73 106
e 73 107
e 73 108
e 73 142
e 73 144
e 73 145
e 73 146
e 73 161
e 73 206
e 73 207
e 73 208
e 73 209
e 73 210
e 73 213
e 73 242
e 74 78
e 74 96
e 74 104
e 74 106
e 74 107
e 74 109
e 74 143
e 74 144
e 74 145
e 74 146
e 74 162
e 74 206
e 74 207
e 74 208
e 74 209
e 74 210
e 74 214
e 74 242
e 75 76
e 75 81
e 75 85
e 75 95
e 75 103
e 75 106
e 75 111
e 75 112
e 75 115
e 75 137
e 75 147
e 75 149
e 75 150
e 75 178
e 75 179
e 75 180
e 75 247
e 75 248
e 75 249
e 76 82
e 76 107
e 76 111
e 76 112
e 76 113
e 76 116
e 76 138
e 76 141
e 76 148
e 76 149
e 76 150
e 76 153
e 76 176
e 76 178
e 76 179
e 76 180
e 76 248
e 76 249
e 77 78
e 77 79
e 77 108
e 77 113
e 77 142
e 77 151
e 77 152
e 77 161
e 77 181
e 77 213
e 77 216
e 77 217
e 77 218
e 77 219
e 77 220
e 77 250
e 77 265
e 78 96
e 78 104
e 78 109
e 78 113
e 78 143
e 78 151
e 78 152
e 78 162
e 78 181
e 78 214
e 78 216
e 78 217
e 78 218
e 78 219
e 78 220
e 78 250
e 78 265
e 79 80
e 79 108
e 79 115
e 79 116
e 79 142
e 79 154
e 79 155
e 79 161
e 79 213
e 79 223
e 79 224
e 79 225
e 79 226
e 79 227
e 79 228
e 80 97
e 80 105
e 80 114
e 80 115
e 80 116
e 80 154
e 80 155
e 80 163
e 80 215
e 80 223
e 80 224
e 80 225
e 80 226
e 80 227
e 80 228
e 81 82
e 81 85
e 81 95
e 81 103
e 81 106
e 81 115
e 81 117
e 81 118
e 81 119
e 81 137
e 81 147
e 81 156
e 81 184
e 81 185
e 81 186
e 81 187
e 81 229
e 81 247
e 81 255
e 82 107
e 82 113
e 82 116
e 82 117
e 82 118
e 82 119
e 82 138
e 82 141
e 82 148
e 82 153
e 82 156
e 82 176
e 82 184
e 82 185
e 82 186
e 82 187
e 82 229
e 82 255
e 83 84
e 83 120
e 83 121
e 83 122
e 83 123
e 83 149
e 83 156
e 83 157
e 83 158
e 83 166
e 83 173
e 83 188
e 83 203
e 83 211
e 83 221
e 83 241
e 84 120
e 84 121
e 84 122
e 84 123
e 84 150
e 84 157
e 84 167
e 84 174
e 84 181
e 84 188
e 84 204
e 84 212
e 84 222
e 84 256
e 84 274
e 85 95
e 85 103
e 85 106
e 85 115
e 85 124
e 85 125
e 85 137
e 85 147
e 85 158
e 85 189
e 85 190
e 85 191
e 85 192
e 85 193
e 85 230
e 85 247
e 86 87
e 86 88
e 86 89
e 86 90
e 86 98
e 86 120
e 86 126
e 86 132
e 86 159
e 86 160
e 86 184
e 86 189
e 86 199
e 86 206
e 86 223
e 86 237
e 86 243
e 86 251
e 87 88
e 87 89
e 87 90
e 87 91
e 87 99
e 87 132
e 87 159
e 87 160
e 87 185
e 87 195
e 87 207
e 87 216
e 87 224
e 87 238
e 87 252
e 87 258
e 87 278
e 88 89
e 88 90
e 88 121
e 88 127
e 88 132
e 88 159
e 88 160
e 88 178
e 88 190
e 88 196
e 88 200
e 88 217
e 88 225
e 88 253
e 88 259
e 88 266
e 89 90
e 89 100
e 89 122
e 89 128
e 89 132
e 89 159
e 89 160
e 89 191
e 89 208
e 89 226
e 89 233
e 89 239
e 89 244
e 89 254
e 89 260
e 90 93
e 90 101
e 90 123
e 90 130
e 90 132
e 90 159
e 90 160
e 90 187
e 90 201
e 90 219
e 90 228
e 90 235
e 90 261
e 90 267
e 91 92
e 91 93
e 91 94
e 91 99
e 91 133
e 91 164
e 91 165
e 91 185
e 91 195
e 91 207
e 91 216
e 91 224
e 91 238
e 91 252
e 91 258
e 91 278
e 92 93
e 92 94
e 92 129
e 92 133
e 92 164
e 92 165
e 92 179
e 92 186
e 92 192
e 92 197
e 92 209
e 92 218
e 92 227
e 92 234
e 92 245
e 92 279
e 93 94
e 93 101
e 93 123
e 93 130
e 93 133
e 93 164
e 93 165
e 93 187
e 93 201
e 93 219
e 93 228
e 93 235
e 93 261
e 93 267
e 94 102
e 94 131
e 94 133
e 94 164
e 94 165
e 94 180
e 94 193
e 94 198
e 94 202
e 94 210
e 94 220
e 94 240
e 94 246
e 94 268
e 95 103
e 95 106
e 95 115
e 95 134
e 95 135
e 95 136
e 95 137
e 95 147
e 95 166
e 95 167
e 95 195
e 95 196
e 95 197
e 95 198
e 95 247
e 96 97
e 96 104
e 96 109
e 96 137
e 96 138
e 96 143
e 96 162
e 96 168
e 96 169
e 96 170
e 96 214
e 96 233
e 96 234
e 96 235
e 96 257
e 96 269
e 97 105
e 97 114
e 97 137
e 97 138
e 97 163
e 97 168
e 97 169
e 97 170
e 97 215
e 97 233
e 97 234
e 97 235
e 97 257
e 97 269
e 98 99
e 98 100
e 98 101
e 98 102
e 98 120
e 98 126
e 98 171
e 98 172
e 98 184
e 98 189
e 98 199
e 98 206
e 98 223
e 98 237
e 98 243
e 98 251
e 99 100
e 99 101
e 99 102
e 99 171
e 99 172
e 99 185
e 99 195
e 99 207
e 99 216
e 99 224
e 99 238
e 99 252
e 99 258
e 99 278
e 100 101
e 100 102
e 100 122
e 100 128
e 100 171
e 100 172
e 100 191
e 100 208
e 100 226
e 100 233
e 100 239
e 100 244
e 100 254
e 100 260
e 101 102
e 101 123
e 101 130
e 101 171
e 101 172
e 101 187
e 101 201
e 101 219
e 101 228
e 101 235
e 101 261
e 101 267
e 102 131
e 102 171
e 102 172
e 102 180
e 102 193
e 102 198
e 102 202
e 102 210
e 102 220
e 102 240
e 102 246
e 102 268
e 103 106
e 103 115
e 103 137
e 103 139
e 103 140
e 103 147
e 103 173
e 103 174
e 103 199
e 103 200
e 103 201
e 103 202
e 103 236
e 103 247
e 104 105
e 104 109
e 104 141
e 104 143
e 104 162
e 104 175
e 104 203
e 104 204
e 104 214
e 104 237
e 104 238
e 104 239
e 104 240
e 104 270
e 104 271
e 105 114
e 105 141
e 105 163
e 105 175
e 105 203
e 105 204
e 105 215
e 105 237
e 105 238
e 105 239
e 105 240
e 105 270
e 105 271
e 106 107
e 106 115
e 106 137
e 106 144
e 106 145
e 106 146
e 106 147
e 106 206
e 106 207
e 106 208
e 106 209
e 106 210
e 106 242
e 106 247
e 107 113
e 107 116
e 107 138
e 107 141
e 107 144
e 107 145
e 107 146
e 107 148
e 107 153
e 107 176
e 107 206
e 107 207
e 107 208
e 107 209
e 107 210
e 107 242
e 108 109
e 108 142
e 108 147
e 108 148
e 108 161
e 108 177
e 108 211
e 108 212
e 108 213
e 108 243
e 108 244
e 108 245
e 108 246
e 108 262
e 108 273
e 109 143
e 109 147
e 109 148
e 109 162
e 109 177
e 109 211
e 109 212
e 109 214
e 109 243
e 109 244
e 109 245
e 109 246
e 109 262
e 109 273
e 110 213
e 110 214
e 110 215
e 110 247
e 110 263
e 110 264
e 110 274
e 110 278
e 110 279
e 111 112
e 111 117
e 111 124
e 111 134
e 111 139
e 111 144
e 111 149
e 111 150
e 111 168
e 111 175
e 111 178
e 111 179
e 111 180
e 111 231
e 111 248
e 111 249
e 112 119
e 112 136
e 112 146
e 112 149
e 112 150
e 112 152
e 112 155
e 112 170
e 112 178
e 112 179
e 112 180
e 112 183
e 112 232
e 112 248
e 112 249
e 112 264
e 113 116
e 113 138
e 113 141
e 113 148
e 113 151
e 113 152
e 113 153
e 113 176
e 113 181
e 113 216
e 113 217
e 113 218
e 113 219
e 113 220
e 113 250
e 113 265
e 114 153
e 114 163
e 114 182
e 114 183
e 114 215
e 114 221
e 114 222
e 114 251
e 114 252
e 114 253
e 114 254
e 114 275
e 114 276
e 115 116
e 115 137
e 115 147
e 115 154
e 115 155
e 115 223
e 115 224
e 115 225
e 115 226
e 115 227
e 115 228
e 115 247
e 116 138
e 116 141
e 116 148
e 116 153
e 116 154
e 116 155
e 116 176
e 116 223
e 116 224
e 116 225
e 116 226
e 116 227
e 116 228
e 117 118
e 117 119
e 117 124
e 117 134
e 117 139
e 117 144
e 117 156
e 117 168
e 117 175
e 117 184
e 117 185
e 117 186
e 117 187
e 117 229
e 117 231
e 117 255
e 118 119
e 118 125
e 118 135
e 118 140
e 118 145
e 118 151
e 118 154
e 118 156
e 118 169
e 118 177
e 118 182
e 118 184
e 118 185
e 118 186
e 118 187
e 118 205
e 118 229
e 118 255
e 118 263
e 119 136
e 119 146
e 119 152
e 119 155
e 119 156
e 119 170
e 119 183
e 119 184
e 119 185
e 119 186
e 119 187
e 119 229
e 119 232
e 119 255
e 119 264
e 120 121
e 120 122
e 120 123
e 120 126
e 120 157
e 120 184
e 120 188
e 120 189
e 120 199
e 120 206
e 120 223
e 120 237
e 120 243
e 120 251
e 121 122
e 121 123
e 121 127
e 121 157
e 121 178
e 121 188
e 121 190
e 121 196
e 121 200
e 121 217
e 121 225
e 121 253
e 121 259
e 121 266
e 122 123
e 122 128
e 122 157
e 122 188
e 122 191
e 122 208
e 122 226
e 122 233
e 122 239
e 122 244
e 122 254
e 122 260
e 123 130
e 123 157
e 123 187
e 123 188
e 123 201
e 123 219
e 123 228
e 123 235
e 123 261
e 123 267
e 124 125
e 124 134
e 124 139
e 124 144
e 124 158
e 124 168
e 124 175
e 124 189
e 124 190
e 124 191
e 124 192
e 124 193
e 124 230
e 124 231
e 125 135
e 125 140
e 125 145
e 125 151
e 125 154
e 125 158
e 125 169
e 125 177
e 125 182
e 125 189
e 125 190
e 125 191
e 125 192
e 125 193
e 125 205
e 125 230
e 125 263
e 126 127
e 126 128
e 126 129
e 126 130
e 126 131
e 126 184
e 126 189
e 126 194
e 126 199
e 126 206
e 126 223
e 126 237
e 126 243
e 126 251
e 127 128
e 127 129
e 127 130
e 127 131
e 127 178
e 127 190
e 127 194
e 127 196
e 127 200
e 127 217
e 127 225
e 127 253
e 127 259
e 127 266
e 128 129
e 128 130
e 128 131
e 128 191
e 128 194
e 128 208
e 128 226
e 128 233
e 128 239
e 128 244
e 128 254
e 128 260
e 129 130
e 129 131
e 129 179
e 129 186
e 129 192
e 129 194
e 129 197
e 129 209
e 129 218
e 129 227
e 129 234
e 129 245
e 129 279
e 130 131
e 130 187
e 130 194
e 130 201
e 130 219
e 130 228
e 130 235
e 130 261
e 130 267
e 131 180
e 131 193
e 131 194
e 131 198
e 131 202
e 131 210
e 131 220
e 131 240
e 131 246
e 131 268
e 132 133
e 132 157
e 132 159
e 132 160
e 132 229
e 132 230
e 132 236
e 132 242
e 132 250
e 132 257
e 132 262
e 132 272
e 133 157
e 133 164
e 133 165
e 133 229
e 133 230
e 133 236
e 133 242
e 133 250
e 133 257
e 133 262
e 133 272
e 134 135
e 134 136
e 134 139
e 134 144
e 134 166
e 134 167
e 134 168
e 134 175
e 134 195
e 134 196
e 134 197
e 134 198
e 134 231
e 135 136
e 135 140
e 135 145
e 135 151
e 135 154
e 135 166
e 135 167
e 135 169
e 135 177
e 135 182
e 135 195
e 135 196
e 135 197
e 135 198
e 135 205
e 135 263
e 136 146
e 136 152
e 136 155
e 136 166
e 136 167
e 136 170
e 136 183
e 136 195
e 136 196
e 136 197
e 136 198
e 136 232
e 136 264
e 137 138
e 137 147
e 137 168
e 137 169
e 137 170
e 137 233
e 137 234
e 137 235
e 137 247
e 137 257
e 137 269
e 138 141
e 138 148
e 138 153
e 138 168
e 138 169
e 138 170
e 138 176
e 138 233
e 138 234
e 138 235
e 138 257
e 138 269
e 139 140
e 139 144
e 139 168
e 139 173
e 139 174
e 139 175
e 139 199
e 139 200
e 139 201
e 139 202
e 139 231
e 139 236
e 140 145
e 140 151
e 140 154
e 140 169
e 140 173
e 140 174
e 140 177
e 140 182
e 140 199
e 140 200
e 140 201
e 140 202
e 140 205
e 140 236
e 140 263
e 141 148
e 141 153
e 141 175
e 141 176
e 141 203
e 141 204
e 141 237
e 141 238
e 141 239
e 141 240
e 141 270
e 141 271
e 142 143
e 142 161
e 142 176
e 142 205
e 142 213
e 142 241
e 142 258
e 142 259
e 142 260
e 142 261
e 142 272
e 142 277
e 143 162
e 143 176
e 143 205
e 143 214
e 143 241
e 143 258
e 143 259
e 143 260
e 143 261
e 143 272
e 143 277
e 144 145
e 144 146
e 144 168
e 144 175
e 144 206
e 144 207
e 144 208
e 144 209
e 144 210
e 144 231
e 144 242
e 145 146
e 145 151
e 145 154
e 145 169
e 145 177
e 145 182
e 145 205
e 145 206
e 145 207
e 145 208
e 145 209
e 145 210
e 145 242
e 145 263
e 146 152
e 146 155
e 146 170
e 146 183
e 146 206
e 146 207
e 146 208
e 146 209
e 146 210
e 146 232
e 146 242
e 146 264
e 147 148
e 147 177
e 147 211
e 147 212
e 147 243
e 147 244
e 147 245
e 147 246
e 147 247
e 147 262
e 147 273
e 148 153
e 148 176
e 148 177
e 148 211
e 148 212
e 148 243
e 148 244
e 148 245
e 148 246
e 148 262
e 148 273
e 149 150
e 149 156
e 149 158
e 149 166
e 149 173
e 149 178
e 149 179
e 149 180
e 149 203
e 149 211
e 149 221
e 149 241
e 149 248
e 149 249
e 150 167
e 150 174
e 150 178
e 150 179
e 150 180
e 150 181
e 150 204
e 150 212
e 150 222
e 150 248
e 150 249
e 150 256
e 150 274
e 151 152
e 151 154
e 151 169
e 151 177
e 151 181
e 151 182
e 151 205
e 151 216
e 151 217
e 151 218
e 151 219
e 151 220
e 151 250
e 151 263
e 151 265
e 152 155
e 152 170
e 152 181
e 152 183
e 152 216
e 152 217
e 152 218
e 152 219
e 152 220
e 152 232
e 152 250
e 152 264
e 152 265
e 153 176
e 153 182
e 153 183
e 153 221
e 153 222
e 153 251
e 153 252
e 153 253
e 153 254
e 153 275
e 153 276
e 154 155
e 154 169
e 154 177
e 154 182
e 154 205
e 154 223
e 154 224
e 154 225
e 154 226
e 154 227
e 154 228
e 154 263
e 155 170
e 155 183
e 155 223
e 155 224
e 155 225
e 155 226
e 155 227
e 155 228
e 155 232
e 155 264
e 156 158
e 156 166
e 156 173
e 156 184
e 156 185
e 156 186
e 156 187
e 156 203
e 156 211
e 156 221
e 156 229
e 156 241
e 156 255
e 157 188
e 157 229
e 157 230
e 157 236
e 157 242
e 157 250
e 157 257
e 157 262
e 157 272
e 158 166
e 158 173
e 158 189
e 158 190
e 158 191
e 158 192
e 158 193
e 158 203
e 158 211
e 158 221
e 158 230
e 158 241
e 159 160
e 159 164
e 159 171
e 159 194
e 159 248
e 159 255
e 159 265
e 159 270
e 159 275
e 159 277
e 160 165
e 160 172
e 160 188
e 160 249
e 160 269
e 160 271
e 160 273
e 160 276
e 160 280
e 161 162
e 161 163
e 161 213
e 161 231
e 161 232
e 161 256
e 161 266
e 161 267
e 161 268
e 161 280
e 162 163
e 162 214
e 162 231
e 162 232
e 162 256
e 162 266
e 162 267
e 162 268
e 162 280
e 163 215
e 163 231
e 163 232
e 163 256
e 163 266
e 163 267
e 163 268
e 163 280
e 164 165
e 164 171
e 164 194
e 164 248
e 164 255
e 164 265
e 164 270
e 164 275
e 164 277
e 165 172
e 165 188
e 165 249
e 165 269
e 165 271
e 165 273
e 165 276
e 165 280
e 166 167
e 166 173
e 166 195
e 166 196
e 166 197
e 166 198
e 166 203
e 166 211
e 166 221
e 166 241
e 167 174
e 167 181
e 167 195
e 167 196
e 167 197
e 167 198
e 167 204
e 167 212
e 167 222
e 167 256
e 167 274
e 168 169
e 168 170
e 168 175
e 168 231
e 168 233
e 168 234
e 168 235
e 168 257
e 168 269
e 169 170
e 169 177
e 169 182
e 169 205
e 169 233
e 169 234
e 169 235
e 169 257
e 169 263
e 169 269
e 170 183
e 170 232
e 170 233
e 170 234
e 170 235
e 170 257
e 170 264
e 170 269
e 171 172
e 171 194
e 171 248
e 171 255
e 171 265
e 171 270
e 171 275
e 171 277
e 172 188
e 172 249
e 172 269
e 172 271
e 172 273
e 172 276
e 172 280
e 173 174
e 173 199
e 173 200
e 173 201
e 173 202
e 173 203
e 173 211
e 173 221
e 173 236
e 173 241
e 174 181
e 174 199
e 174 200
e 174 201
e 174 202
e 174 204
e 174 212
e 174 222
e 174 236
e 174 256
e 174 274
e 175 203
e 175 204
e 175 231
e 175 237
e 175 238
e 175 239
e 175 240
e 175 270
e 175 271
e 176 205
e 176 241
e 176 258
e 176 259
e 176 260
e 176 261
e 176 272
e 176 277
e 177 182
e 177 205
e 177 211
e 177 212
e 177 243
e 177 244
e 177 245
e 177 246
e 177 262
e 177 263
e 177 273
e 178 179
e 178 180
e 178 190
e 178 196
e 178 200
e 178 217
e 178 225
e 178 248
e 178 249
e 178 253
e 178 259
e 178 266
e 179 180
e 179 186
e 179 192
e 179 197
e 179 209
e 179 218
e 179 227
e 179 234
e 179 245
e 179 248
e 179 249
e 179 279
e 180 193
e 180 198
e 180 202
e 180 210
e 180 220
e 180 240
e 180 246
e 180 248
e 180 249
e 180 268
e 181 204
e 181 212
e 181 216
e 181 217
e 181 218
e 181 219
e 181 220
e 181 222
e 181 250
e 181 256
e 181 265
e 181 274
e 182 183
e 182 205
e 182 221
e 182 222
e 182 251
e 182 252
e 182 253
e 182 254
e 182 263
e 182 275
e 182 276
e 183 221
e 183 222
e 183 232
e 183 251
e 183 252
e 183 253
e 183 254
e 183 264
e 183 275
e 183 276
e 184 185
e 184 186
e 184 187
e 184 189
e 184 199
e 184 206
e 184 223
e 184 229
e 184 237
e 184 243
e 184 251
e 184 255
e 185 186
e 185 187
e 185 195
e 185 207
e 185 216
e 185 224
e 185 229
e 185 238
e 185 252
e 185 255
e 185 258
e 185 278
e 186 187
e 186 192
e 186 197
e 186 209
e 186 218
e 186 227
e 186 229
e 186 234
e 186 245
e 186 255
e 186 279
e 187 201
e 187 219
e 187 228
e 187 229
e 187 235
e 187 255
e 187 261
e 187 267
e 188 249
e 188 269
e 188 271
e 188 273
e 188 276
e 188 280
e 189 190
e 189 191
e 189 192
e 189 193
e 189 199
e 189 206
e 189 223
e 189 230
e 189 237
e 189 243
e 189 251
e 190 191
e 190 192
e 190 193
e 190 196
e 190 200
e 190 217
e 190 225
e 190 230
e 190 253
e 190 259
e 190 266
e 191 192
e 191 193
e 191 208
e 191 226
e 191 230
e 191 233
e 191 239
e 191 244
e 191 254
e 191 260
e 192 193
e 192 197
e 192 209
e 192 218
e 192 227
e 192 230
e 192 234
e 192 245
e 192 279
e 193 198
e 193 202
e 193 210
e 193 220
e 193 230
e 193 240
e 193 246
e 193 268
e 194 248
e 194 255
e 194 265
e 194 270
e 194 275
e 194 277
e 195 196
e 195 197
e 195 198
e 195 207
e 195 216
e 195 224
e 195 238
e 195 252
e 195 258
e 195 278
e 196 197
e 196 198
e 196 200
e 196 217
e 196 225
e 196 253
e 196 259
e 196 266
e 197 198
e 197 209
e 197 218
e 197 227
e 197 234
e 197 245
e 197 279
e 198 202
e 198 210
e 198 220
e 198 240
e 198 246
e 198 268
e 199 200
e 199 201
e 199 202
e 199 206
e 199 223
e 199 236
e 199 237
e 199 243
e 199 251
e 200 201
e 200 202
e 200 217
e 200 225
e 200 236
e 200 253
e 200 259
e 200 266
e 201 202
e 201 219
e 201 228
e 201 235
e 201 236
e 201 261
e 201 267
e 202 210
e 202 220
e 202 236
e 202 240
e 202 246
e 202 268
e 203 204
e 203 211
e 203 221
e 203 237
e 203 238
e 203 239
e 203 240
e 203 241
e 203 270
e 203 271
e 204 212
e 204 222
e 204 237
e 204 238
e 204 239
e 204 240
e 204 256
e 204 270
e 204 271
e 204 274
e 205 241
e 205 258
e 205 259
e 205 260
e 205 261
e 205 263
e 205 272
e 205 277
e 206 207
e 206 208
e 206 209
e 206 210
e 206 223
e 206 237
e 206 242
e 206 243
e 206 251
e 207 208
e 207 209
e 207 210
e 207 216
e 207 224
e 207 238
e 207 242
e 207 252
e 207 258
e 207 278
e 208 209
e 208 210
e 208 226
e 208 233
e 208 239
e 208 242
e 208 244
e 208 254
e 208 260
e 209 210
e 209 218
e 209 227
e 209 234
e 209 242
e 209 245
e 209 279
e 210 220
e 210 240
e 210 242
e 210 246
e 210 268
e 211 212
e 211 221
e 211 241
e 211 243
e 211 244
e 211 245
e 211 246
e 211 262
e 211 273
e 212 222
e 212 243
e 212 244
e 212 245
e 212 246
e 212 256
e 212 262
e 212 273
e 212 274
e 213 214
e 213 215
e 213 247
e 213 263
e 213 264
e 213 274
e 213 278
e 213 279
e 214 215
e 214 247
e 214 263
e 214 264
e 214 274
e 214 278
e 214 279
e 215 247
e 215 263
e 215 264
e 215 274
e 215 278
e 215 279
e 216 217
e 216 218
e 216 219
e 216 220
e 216 224
e 216 238
e 216 250
e 216 252
e 216 258
e 216 265
e 216 278
e 217 218
e 217 219
e 217 220
e 217 225
e 217 250
e 217 253
e 217 259
e 217 265
e 217 266
e 218 219
e 218 220
e 218 227
e 218 234
e 218 245
e 218 250
e 218 265
e 218 279
e 219 220
e 219 228
e 219 235
e 219 250
e 219 261
e 219 265
e 219 267
e 220 240
e 220 246
e 220 250
e 220 265
e 220 268
e 221 222
e 221 241
e 221 251
e 221 252
e 221 253
e 221 254
e 221 275
e 221 276
e 222 251
e 222 252
e 222 253
e 222 254
e 222 256
e 222 274
e 222 275
e 222 276
e 223 224
e 223 225
e 223 226
e 223 227
e 223 228
e 223 237
e 223 243
e 223 251
e 224 225
e 224 226
e 224 227
e 224 228
e 224 238
e 224 252
e 224 258
e 224 278
e 225 226
e 225 227
e 225 228
e 225 253
e 225 259
e 225 266
e 226 227
e 226 228
e 226 233
e 226 239
e 226 244
e 226 254
e 226 260
e 227 228
e 227 234
e 227 245
e 227 279
e 228 235
e 228 261
e 228 267
e 229 230
e 229 236
e 229 242
e 229 250
e 229 255
e 229 257
e 229 262
e 229 272
e 230 236
e 230 242
e 230 250
e 230 257
e 230 262
e 230 272
e 231 232
e 231 256
e 231 266
e 231 267
e 231 268
e 231 280
e 232 256
e 232 264
e 232 266
e 232 267
e 232 268
e 232 280
e 233 234
e 233 235
e 233 239
e 233 244
e 233 254
e 233 257
e 233 260
e 233 269
e 234 235
e 234 245
e 234 257
e 234 269
e 234 279
e 235 257
e 235 261
e 235 267
e 235 269
e 236 242
e 236 250
e 236 257
e 236 262
e 236 272
e 237 238
e 237 239
e 237 240
e 237 243
e 237 251
e 237 270
e 237 271
e 238 239
e 238 240
e 238 252
e 238 258
e 238 270
e 238 271
e 238 278
e 239 240
e 239 244
e 239 254
e 239 260
e 239 270
e 239 271
e 240 246
e 240 268
e 240 270
e 240 271
e 241 258
e 241 259
e 241 260
e 241 261
e 241 272
e 241 277
e 242 250
e 242 257
e 242 262
e 242 272
e 243 244
e 243 245
e 243 246
e 243 251
e 243 262
e 243 273
e 244 245
e 244 246
e 244 254
e 244 260
e 244 262
e 244 273
e 245 246
e 245 262
e 245 273
e 245 279
e 246 262
e 246 268
e 246 273
e 247 263
e 247 264
e 247 274
e 247 278
e 247 279
e 248 249
e 248 255
e 248 265
e 248 270
e 248 275
e 248 277
e 249 269
e 249 271
e 249 273
e 249 276
e 249 280
e 250 257
e 250 262
e 250 265
e 250 272
e 251 252
e 251 253
e 251 254
e 251 275
e 251 276
e 252 253
e 252 254
e 252 258
e 252 275
e 252 276
e 252 278
e 253 254
e 253 259
e 253 266
e 253 275
e 253 276
e 254 260
e 254 275
e 254 276
e 255 265
e 255 270
e 255 275
e 255 277
e 256 266
e 256 267
e 256 268
e 256 274
e 256 280
e 257 262
e 257 269
e 257 272
e 258 259
e 258 260
e 258 261
e 258 272
e 258 277
e 258 278
e 259 260
e 259 261
e 259 266
e 259 272
e 259 277
e 260 261
e 260 272
e 260 277
e 261 267
e 261 272
e 261 277
e 262 272
e 262 273
e 263 264
e 263 274
e 263 278
e 263 279
e 264 274
e 264 278
e 264 279
e 265 270
e 265 275
e 265 277
e 266 267
e 266 268
e 266 280
e 267 268
e 267 280
e 268 280
e 269 271
e 269 273
e 269 276
e 269 280
e 270 271
e 270 275
e 270 277
e 271 273
e 271 276
e 271 280
e 272 277
e 273 276
e 273 280
e 274 278
e 274 279
e 275 276
e 275 277
e 276 280
e 278 279
